p wcnf 10 30 31
c ===== Hard Clauses =====
c ===== Soft Clauses (Sum weights: 30) =====
1 1 2 0
1 -1 2 0
1 2 3 0
1 -2 3 0
1 3 4 0
1 -3 4 0
1 4 5 0
1 -4 5 0
1 5 1 0
1 -5 1 0
1 1 6 0
1 -1 6 0
1 2 7 0
1 -2 7 0
1 3 8 0
1 -3 8 0
1 4 9 0
1 -4 9 0
1 5 10 0
1 -5 10 0
1 6 8 0
1 -6 8 0
1 6 9 0
1 -6 9 0
1 7 9 0
1 -7 9 0
1 7 10 0
1 -7 10 0
1 8 10 0
1 -8 10 0
